letting n =  10
letting blocks =  [[1, 6], [1, 8], [2, 3], [2, 5], [2, 9], [3, 1], [3, 6], [3, 7], [5, 1], [5, 8], [6, 7], [7, 1], [7, 3], [7, 4], [7, 5], [7, 7], [7, 8], [8, 4], [8, 5], [8, 6], [8, 10], [9, 3], [10, 4], [10, 9]]
